c CNF file corresponding to a (partial) station packing problem.
p cnf 4500 198
1 2 3 4 5 6 7 8 9 10 11 12 13 14 0
-1 -2 0
-1 -3 0
-1 -4 0
-1 -5 0
-1 -6 0
-1 -7 0
-1 -8 0
-1 -9 0
-1 -10 0
-1 -11 0
-1 -12 0
-1 -13 0
-1 -14 0
-2 -3 0
-2 -4 0
-2 -5 0
-2 -6 0
-2 -7 0
-2 -8 0
-2 -9 0
-2 -10 0
-2 -11 0
-2 -12 0
-2 -13 0
-2 -14 0
-3 -4 0
-3 -5 0
-3 -6 0
-3 -7 0
-3 -8 0
-3 -9 0
-3 -10 0
-3 -11 0
-3 -12 0
-3 -13 0
-3 -14 0
-4 -5 0
-4 -6 0
-4 -7 0
-4 -8 0
-4 -9 0
-4 -10 0
-4 -11 0
-4 -12 0
-4 -13 0
-4 -14 0
-5 -6 0
-5 -7 0
-5 -8 0
-5 -9 0
-5 -10 0
-5 -11 0
-5 -12 0
-5 -13 0
-5 -14 0
-6 -7 0
-6 -8 0
-6 -9 0
-6 -10 0
-6 -11 0
-6 -12 0
-6 -13 0
-6 -14 0
-7 -8 0
-7 -9 0
-7 -10 0
-7 -11 0
-7 -12 0
-7 -13 0
-7 -14 0
-8 -9 0
-8 -10 0
-8 -11 0
-8 -12 0
-8 -13 0
-8 -14 0
-9 -10 0
-9 -11 0
-9 -12 0
-9 -13 0
-9 -14 0
-10 -11 0
-10 -12 0
-10 -13 0
-10 -14 0
-11 -12 0
-11 -13 0
-11 -14 0
-12 -13 0
-12 -14 0
-13 -14 0
4486 4487 4488 4489 4490 4491 4492 4493 4494 4495 4496 4497 4498 4499 4500 0
-4486 -4487 0
-4486 -4488 0
-4486 -4489 0
-4486 -4490 0
-4486 -4491 0
-4486 -4492 0
-4486 -4493 0
-4486 -4494 0
-4486 -4495 0
-4486 -4496 0
-4486 -4497 0
-4486 -4498 0
-4486 -4499 0
-4486 -4500 0
-4487 -4488 0
-4487 -4489 0
-4487 -4490 0
-4487 -4491 0
-4487 -4492 0
-4487 -4493 0
-4487 -4494 0
-4487 -4495 0
-4487 -4496 0
-4487 -4497 0
-4487 -4498 0
-4487 -4499 0
-4487 -4500 0
-4488 -4489 0
-4488 -4490 0
-4488 -4491 0
-4488 -4492 0
-4488 -4493 0
-4488 -4494 0
-4488 -4495 0
-4488 -4496 0
-4488 -4497 0
-4488 -4498 0
-4488 -4499 0
-4488 -4500 0
-4489 -4490 0
-4489 -4491 0
-4489 -4492 0
-4489 -4493 0
-4489 -4494 0
-4489 -4495 0
-4489 -4496 0
-4489 -4497 0
-4489 -4498 0
-4489 -4499 0
-4489 -4500 0
-4490 -4491 0
-4490 -4492 0
-4490 -4493 0
-4490 -4494 0
-4490 -4495 0
-4490 -4496 0
-4490 -4497 0
-4490 -4498 0
-4490 -4499 0
-4490 -4500 0
-4491 -4492 0
-4491 -4493 0
-4491 -4494 0
-4491 -4495 0
-4491 -4496 0
-4491 -4497 0
-4491 -4498 0
-4491 -4499 0
-4491 -4500 0
-4492 -4493 0
-4492 -4494 0
-4492 -4495 0
-4492 -4496 0
-4492 -4497 0
-4492 -4498 0
-4492 -4499 0
-4492 -4500 0
-4493 -4494 0
-4493 -4495 0
-4493 -4496 0
-4493 -4497 0
-4493 -4498 0
-4493 -4499 0
-4493 -4500 0
-4494 -4495 0
-4494 -4496 0
-4494 -4497 0
-4494 -4498 0
-4494 -4499 0
-4494 -4500 0
-4495 -4496 0
-4495 -4497 0
-4495 -4498 0
-4495 -4499 0
-4495 -4500 0
-4496 -4497 0
-4496 -4498 0
-4496 -4499 0
-4496 -4500 0
-4497 -4498 0
-4497 -4499 0
-4497 -4500 0
-4498 -4499 0
-4498 -4500 0
-4499 -4500 0
